8 0 7 4 4 8 1 2 0 -1 
-1 3 0 5 0 9 2 -1 6 -1 
0 -1 5 4 -1 -1 4 3 7 -1 
8 3 -1 7 -1 3 1 7 8 -1 
5 5 8 7 8 6 8 6 3 -1 
9 8 8 9 8 4 6 2 8 -1 
5 4 7 2 3 5 8 2 1 -1 
9 4 3 -1 2 5 0 1 0 -1 
7 -1 2 2 5 3 6 4 6 -1 
7 3 0 4 4 9 -1 7 6 -1 
